<number of tasks>
58

<cycle time>
74

<task times>
1 10
2 53
3 41
4 36
5 35
6 17
7 34
8 23
9 14
10 52
11 33
12 34
13 12
14 52
15 12
16 33
17 44
18 7
19 15
20 13
21 29
22 37
23 43
24 23
25 24
26 9
27 16
28 12
29 26
30 22
31 51
32 47
33 34
34 23
35 12
36 52
37 12
38 33
39 44
40 7
41 15
42 13
43 29
44 37
45 43
46 23
47 24
48 9
49 16
50 12
51 26
52 12
53 52
54 12
55 33
56 44
57 7
58 15

<precedence relations>
1,9
2,25
3,21
3,22
4,10
5,36
6,23
6,24
7,43
8,44
9,11
11,13
11,14
11,15
12,17
13,17
14,17
15,17
16,18
17,20
18,19
19,23
20,21
20,25
21,26
21,44
22,27
23,31
24,31
25,38
26,29
27,30
28,32
28,33
29,31
30,34
31,36
32,45
33,35
34,36
35,43
36,37
36,38
37,39
37,40
37,41
38,52
39,43
40,43
41,42
42,43
43,45
44,45
45,46
45,48
45,49
46,47
46,50
47,51
48,55
49,58
50,58
51,52
52,53
53,54
54,55
54,56
55,57
56,57
57,58

<setup times forward>
1,2:2
1,3:1
1,4:3
1,5:2
1,6:1
1,7:2
1,10:3
1,16:1
1,18:2
1,19:2
1,22:3
1,23:1
1,24:2
1,28:2
1,33:1
1,34:2
1,35:2
2,1:2
2,3:1
2,4:1
2,6:1
2,8:2
2,9:2
2,10:1
2,12:2
2,14:2
2,16:1
2,17:1
2,20:1
2,21:3
2,22:1
2,23:3
2,24:4
2,25:4
2,27:2
2,29:4
2,30:2
2,32:2
2,33:1
2,35:4
2,36:1
2,37:4
2,39:4
2,40:4
2,41:4
2,42:4
2,43:1
2,44:1
2,45:1
2,46:2
2,47:2
2,48:1
2,49:3
2,50:1
2,51:2
3,1:1
3,2:1
3,4:2
3,5:1
3,7:1
3,8:1
3,9:1
3,10:2
3,11:1
3,12:1
3,13:1
3,14:1
3,15:1
3,18:1
3,19:1
3,21:2
3,22:2
3,23:2
3,24:3
3,25:3
3,28:1
3,32:1
3,35:3
4,1:3
4,2:1
4,3:2
4,5:1
4,6:2
4,7:1
4,8:3
4,9:3
4,11:1
4,12:3
4,13:1
4,14:3
4,15:1
4,16:2
4,17:2
4,18:1
4,19:1
4,20:2
4,21:4
4,23:4
4,24:5
4,25:5
4,26:1
4,27:3
4,28:1
4,29:5
4,30:3
4,31:1
4,32:3
4,33:2
4,34:1
4,35:5
4,37:5
4,38:5
4,39:5
4,40:5
4,41:5
4,42:5
4,44:2
4,46:3
4,47:3
4,49:4
4,51:3
4,52:1
4,53:1
4,55:4
4,57:4
4,58:4
5,1:2
5,3:1
5,4:1
5,6:1
5,8:2
5,9:2
5,10:1
5,12:2
5,14:2
5,16:1
5,17:1
5,20:1
5,21:3
5,22:1
5,23:3
5,24:4
5,25:4
5,27:2
5,29:4
5,30:2
5,32:2
5,33:1
5,35:4
5,36:1
5,44:1
6,1:1
6,2:1
6,4:2
6,5:1
6,7:1
6,8:1
6,9:1
6,10:2
6,11:1
6,12:1
6,13:1
6,14:1
6,15:1
6,18:1
6,19:1
6,21:2
6,22:2
6,23:2
6,24:3
6,25:3
6,26:1
6,27:1
6,28:1
6,29:3
6,30:1
6,32:1
6,34:1
6,35:3
7,1:2
7,3:1
7,4:1
7,6:1
7,8:2
7,9:2
7,10:1
7,12:2
7,14:2
7,16:1
7,17:1
7,20:1
7,21:3
7,22:1
7,23:3
7,24:4
7,25:4
7,27:2
7,29:4
7,30:2
7,32:2
7,33:1
7,35:4
7,36:1
7,37:4
7,38:4
7,39:4
7,40:4
7,41:4
7,42:4
7,43:1
7,44:1
8,2:2
8,3:1
8,4:3
8,5:2
8,6:1
8,7:2
8,10:3
8,11:2
8,13:2
8,15:2
8,16:1
8,17:1
8,18:2
8,19:2
8,20:1
8,21:1
8,22:3
8,23:1
8,24:2
8,25:2
8,26:2
8,28:2
8,29:2
8,31:2
8,33:1
8,34:2
8,35:2
8,36:3
8,37:2
8,38:2
8,39:2
8,40:2
8,41:2
8,42:2
8,43:3
8,44:1
9,2:2
9,3:1
9,4:3
9,5:2
9,6:1
9,7:2
9,10:3
9,11:2
9,16:1
9,18:2
9,19:2
9,22:3
9,23:1
9,24:2
9,28:2
9,33:1
9,34:2
9,35:2
10,1:3
10,2:1
10,3:2
10,5:1
10,6:2
10,7:1
10,8:3
10,9:3
10,11:1
10,12:3
10,13:1
10,14:3
10,15:1
10,16:2
10,17:2
10,18:1
10,19:1
10,20:2
10,21:4
10,23:4
10,24:5
10,25:5
10,26:1
10,27:3
10,28:1
10,29:5
10,30:3
10,31:1
10,32:3
10,33:2
10,34:1
10,35:5
10,37:5
10,38:5
10,39:5
10,40:5
10,41:5
10,42:5
10,44:2
10,46:3
10,47:3
10,49:4
10,51:3
10,52:1
10,53:1
10,55:4
10,57:4
10,58:4
11,3:1
11,4:1
11,6:1
11,8:2
11,10:1
11,12:2
11,14:2
11,16:1
11,22:1
11,23:3
11,24:4
11,27:2
11,30:2
11,32:2
11,33:1
11,35:4
12,2:2
12,3:1
12,4:3
12,5:2
12,6:1
12,7:2
12,10:3
12,11:2
12,13:2
12,15:2
12,16:1
12,17:1
12,18:2
12,19:2
12,22:3
12,23:1
12,24:2
12,28:2
12,33:1
12,34:2
12,35:2
13,3:1
13,4:1
13,6:1
13,8:2
13,10:1
13,12:2
13,14:2
13,16:1
13,17:1
13,22:1
13,23:3
13,24:4
13,27:2
13,30:2
13,32:2
13,33:1
13,35:4
14,2:2
14,3:1
14,4:3
14,5:2
14,6:1
14,7:2
14,10:3
14,13:2
14,15:2
14,16:1
14,17:1
14,18:2
14,19:2
14,22:3
14,23:1
14,24:2
14,28:2
14,33:1
14,34:2
14,35:2
15,3:1
15,4:1
15,6:1
15,8:2
15,10:1
15,12:2
15,14:2
15,16:1
15,17:1
15,22:1
15,23:3
15,24:4
15,27:2
15,30:2
15,32:2
15,33:1
15,35:4
16,1:1
16,2:1
16,4:2
16,5:1
16,7:1
16,8:1
16,9:1
16,10:2
16,11:1
16,12:1
16,13:1
16,14:1
16,15:1
16,18:1
16,21:2
16,22:2
16,24:3
16,25:3
16,26:1
16,27:1
16,28:1
16,29:3
16,30:1
16,32:1
16,34:1
16,35:3
17,2:1
17,4:2
17,5:1
17,7:1
17,8:1
17,10:2
17,18:1
17,19:1
17,22:2
17,23:2
17,24:3
17,27:1
17,28:1
17,30:1
17,32:1
17,34:1
17,35:3
18,1:2
18,3:1
18,4:1
18,6:1
18,8:2
18,9:2
18,10:1
18,12:2
18,14:2
18,17:1
18,20:1
18,21:3
18,22:1
18,24:4
18,25:4
18,27:2
18,29:4
18,30:2
18,32:2
18,33:1
18,35:4
18,44:1
19,1:2
19,3:1
19,4:1
19,6:1
19,8:2
19,9:2
19,10:1
19,12:2
19,14:2
19,17:1
19,20:1
19,21:3
19,22:1
19,23:3
19,24:4
19,25:4
19,27:2
19,29:4
19,30:2
19,32:2
19,33:1
19,35:4
19,44:1
20,2:1
20,4:2
20,5:1
20,7:1
20,8:1
20,10:2
20,18:1
20,19:1
20,21:2
20,22:2
20,23:2
20,24:3
20,25:3
20,27:1
20,28:1
20,30:1
20,32:1
20,34:1
20,35:3
21,2:3
21,4:4
21,5:3
21,6:2
21,7:3
21,8:1
21,10:4
21,16:2
21,18:3
21,19:3
21,22:4
21,24:1
21,25:1
21,26:3
21,27:1
21,28:3
21,30:1
21,32:1
21,33:2
21,34:3
21,35:1
21,44:2
22,1:3
22,2:1
22,5:1
22,6:2
22,7:1
22,8:3
22,9:3
22,11:1
22,12:3
22,13:1
22,14:3
22,15:1
22,16:2
22,17:2
22,18:1
22,19:1
22,20:2
22,21:4
22,23:4
22,24:5
22,25:5
22,26:1
22,27:3
22,28:1
22,29:5
22,31:1
22,32:3
22,33:2
22,35:5
22,44:2
23,1:1
23,2:3
23,3:2
23,4:4
23,5:3
23,7:3
23,8:1
23,9:1
23,10:4
23,11:3
23,12:1
23,13:3
23,14:1
23,15:3
23,17:2
23,20:2
23,22:4
23,24:1
23,25:1
23,26:3
23,27:1
23,28:3
23,29:1
23,30:1
23,31:3
23,32:1
23,33:2
23,34:3
23,35:1
23,44:2
24,1:2
24,2:4
24,3:3
24,4:5
24,5:4
24,7:4
24,8:2
24,9:2
24,10:5
24,11:4
24,12:2
24,13:4
24,14:2
24,15:4
24,16:3
24,17:3
24,18:4
24,19:4
24,20:3
24,21:1
24,22:5
24,23:1
24,26:4
24,27:2
24,28:4
24,30:2
24,31:4
24,32:2
24,33:3
24,34:4
24,44:3
25,3:3
25,4:5
25,5:4
25,6:3
25,7:4
25,8:2
25,10:5
25,16:3
25,18:4
25,19:4
25,21:1
25,22:5
25,23:1
25,26:4
25,27:2
25,28:4
25,30:2
25,31:4
25,32:2
25,33:3
25,34:4
25,36:5
25,43:5
25,44:3
25,45:5
25,46:2
25,47:2
25,48:5
25,49:1
25,50:5
25,51:2
26,4:1
26,6:1
26,8:2
26,10:1
26,16:1
26,22:1
26,23:3
26,24:4
26,25:4
26,27:2
26,29:4
26,30:2
26,32:2
26,33:1
26,35:4
26,44:1
27,2:2
27,4:3
27,5:2
27,6:1
27,7:2
27,10:3
27,11:2
27,13:2
27,15:2
27,16:1
27,17:1
27,18:2
27,19:2
27,20:1
27,21:1
27,23:1
27,24:2
27,25:2
27,26:2
27,28:2
27,29:2
27,31:2
27,33:1
27,35:2
27,44:1
28,1:2
28,3:1
28,4:1
28,6:1
28,8:2
28,9:2
28,10:1
28,12:2
28,14:2
28,16:1
28,17:1
28,20:1
28,21:3
28,22:1
28,23:3
28,24:4
28,25:4
28,27:2
28,29:4
28,30:2
28,32:2
28,33:1
28,36:1
28,37:4
28,38:4
28,39:4
28,40:4
28,41:4
28,42:4
28,44:1
29,2:4
29,4:5
29,5:4
29,6:3
29,7:4
29,8:2
29,10:5
29,16:3
29,18:4
29,19:4
29,22:5
29,23:1
29,27:2
29,28:4
29,30:2
29,31:4
29,32:2
29,33:3
29,34:4
29,44:3
30,2:2
30,4:3
30,5:2
30,6:1
30,7:2
30,10:3
30,11:2
30,13:2
30,15:2
30,16:1
30,17:1
30,18:2
30,19:2
30,20:1
30,21:1
30,23:1
30,24:2
30,25:2
30,26:2
30,28:2
30,29:2
30,31:2
30,33:1
30,34:2
30,35:2
30,44:1
31,4:1
31,8:2
31,10:1
31,22:1
31,25:4
31,27:2
31,30:2
31,32:2
31,33:1
31,35:4
31,36:1
31,44:1
32,2:2
32,3:1
32,4:3
32,5:2
32,6:1
32,7:2
32,10:3
32,11:2
32,13:2
32,15:2
32,16:1
32,17:1
32,18:2
32,19:2
32,20:1
32,21:1
32,22:3
32,23:1
32,24:2
32,25:2
32,26:2
32,29:2
32,31:2
32,33:1
32,34:2
32,35:2
32,36:3
32,37:2
32,38:2
32,39:2
32,40:2
32,41:2
32,42:2
32,43:3
32,44:1
32,45:3
33,1:1
33,2:1
33,4:2
33,5:1
33,7:1
33,8:1
33,9:1
33,10:2
33,11:1
33,12:1
33,13:1
33,14:1
33,15:1
33,18:1
33,19:1
33,21:2
33,22:2
33,23:2
33,24:3
33,25:3
33,26:1
33,27:1
33,29:3
33,30:1
33,31:1
33,32:1
33,34:1
33,35:3
33,36:2
33,37:3
33,38:3
33,39:3
33,40:3
33,41:3
33,42:3
34,1:2
34,4:1
34,6:1
34,8:2
34,9:2
34,10:1
34,12:2
34,14:2
34,16:1
34,17:1
34,20:1
34,21:3
34,23:3
34,24:4
34,25:4
34,29:4
34,32:2
34,33:1
34,35:4
34,36:1
34,44:1
35,1:2
35,2:4
35,3:3
35,4:5
35,5:4
35,6:3
35,7:4
35,8:2
35,9:2
35,10:5
35,11:4
35,12:2
35,13:4
35,14:2
35,15:4
35,16:3
35,17:3
35,18:4
35,19:4
35,20:3
35,21:1
35,22:5
35,23:1
35,26:4
35,27:2
35,30:2
35,31:4
35,32:2
35,34:4
35,36:5
35,43:5
35,44:3
36,2:1
36,7:1
36,8:3
36,25:5
36,28:1
36,32:3
36,33:2
36,35:5
36,37:5
36,38:5
36,44:2
37,2:4
37,4:5
37,7:4
37,8:2
37,10:5
37,28:4
37,32:2
37,33:3
37,44:3
38,4:5
38,7:4
38,8:2
38,10:5
38,28:4
38,32:2
38,33:3
38,43:5
38,44:3
38,45:5
38,46:2
38,47:2
38,48:5
38,49:1
38,50:5
38,51:2
38,52:4
39,2:4
39,4:5
39,7:4
39,8:2
39,10:5
39,28:4
39,32:2
39,33:3
39,43:5
39,44:3
40,2:4
40,4:5
40,7:4
40,8:2
40,10:5
40,28:4
40,32:2
40,33:3
40,43:5
40,44:3
41,2:4
41,4:5
41,7:4
41,8:2
41,10:5
41,28:4
41,32:2
41,33:3
41,44:3
42,2:4
42,4:5
42,7:4
42,8:2
42,10:5
42,28:4
42,32:2
42,33:3
42,43:5
42,44:3
43,2:1
43,8:3
43,25:5
43,32:3
43,38:5
43,44:2
44,2:1
44,4:2
44,5:1
44,7:1
44,10:2
44,18:1
44,19:1
44,22:2
44,23:2
44,24:3
44,25:3
44,26:1
44,27:1
44,28:1
44,29:3
44,30:1
44,31:1
44,32:1
44,34:1
44,35:3
44,36:2
44,37:3
44,38:3
44,39:3
44,40:3
44,41:3
44,42:3
44,43:2
44,45:2
45,2:1
45,25:5
45,38:5
45,46:3
45,49:4
46,2:2
46,4:3
46,10:3
46,25:2
46,38:2
46,48:3
46,49:1
46,50:3
47,2:2
47,4:3
47,10:3
47,25:2
47,38:2
47,48:3
47,49:1
47,50:3
48,2:1
48,25:5
48,38:5
48,46:3
48,47:3
48,49:4
48,51:3
48,52:1
48,53:1
48,55:4
49,2:3
49,4:4
49,10:4
49,25:1
49,38:1
49,46:1
49,47:1
49,48:4
49,50:4
49,51:1
49,52:3
49,53:3
49,54:4
49,56:4
50,2:1
50,25:5
50,38:5
50,47:3
50,49:4
50,51:3
50,52:1
50,53:1
50,55:4
50,57:4
50,58:4
51,2:2
51,4:3
51,10:3
51,25:2
51,38:2
51,48:3
51,49:1
51,50:3
51,52:2
52,4:1
52,10:1
52,48:1
52,49:3
52,50:1
53,4:1
53,10:1
53,48:1
53,49:3
53,50:1
53,54:1
54,49:4
54,55:4
55,4:4
55,10:4
55,50:4
55,56:4
56,49:4
56,55:4
56,57:4
57,4:4
57,10:4
57,50:4
58,4:4
58,10:4

<setup times backward>
1,23:1
1,24:2
1,35:2
2,1:2
2,3:1
2,6:1
2,8:2
2,9:2
2,12:2
2,14:2
2,16:1
2,17:1
2,20:1
2,21:3
2,23:3
2,24:4
2,27:2
2,29:4
2,30:2
2,32:2
2,33:1
2,35:4
2,37:4
2,39:4
2,40:4
2,41:4
2,42:4
2,44:1
2,46:2
2,47:2
2,49:3
2,51:2
3,1:1
3,8:1
3,9:1
3,12:1
3,14:1
3,23:2
3,24:3
3,25:3
3,32:1
3,35:3
4,1:3
4,2:1
4,3:2
4,5:1
4,6:2
4,7:1
4,8:3
4,9:3
4,11:1
4,12:3
4,13:1
4,14:3
4,15:1
4,16:2
4,17:2
4,18:1
4,19:1
4,20:2
4,21:4
4,23:4
4,24:5
4,25:5
4,26:1
4,27:3
4,28:1
4,29:5
4,30:3
4,31:1
4,32:3
4,33:2
4,34:1
4,35:5
4,37:5
4,38:5
4,39:5
4,40:5
4,41:5
4,42:5
4,44:2
4,46:3
4,47:3
4,49:4
4,51:3
4,52:1
4,53:1
4,55:4
4,57:4
4,58:4
5,1:2
5,3:1
5,6:1
5,8:2
5,9:2
5,12:2
5,14:2
5,16:1
5,17:1
5,20:1
5,21:3
5,23:3
5,24:4
5,25:4
5,27:2
5,29:4
5,30:2
5,32:2
5,33:1
5,35:4
5,44:1
6,1:1
6,8:1
6,9:1
6,12:1
6,14:1
6,21:2
6,25:3
6,27:1
6,29:3
6,30:1
6,32:1
6,35:3
7,1:2
7,3:1
7,6:1
7,8:2
7,9:2
7,12:2
7,14:2
7,16:1
7,17:1
7,20:1
7,21:3
7,23:3
7,24:4
7,25:4
7,27:2
7,29:4
7,30:2
7,32:2
7,33:1
7,35:4
7,37:4
7,38:4
7,39:4
7,40:4
7,41:4
7,42:4
7,44:1
8,21:1
8,23:1
8,24:2
8,25:2
8,29:2
8,35:2
8,37:2
8,38:2
8,39:2
8,40:2
8,41:2
8,42:2
9,23:1
9,24:2
9,35:2
10,1:3
10,2:1
10,3:2
10,5:1
10,6:2
10,7:1
10,8:3
10,9:3
10,11:1
10,12:3
10,13:1
10,14:3
10,15:1
10,16:2
10,17:2
10,18:1
10,19:1
10,20:2
10,21:4
10,23:4
10,24:5
10,25:5
10,26:1
10,27:3
10,28:1
10,29:5
10,30:3
10,31:1
10,32:3
10,33:2
10,34:1
10,35:5
10,37:5
10,38:5
10,39:5
10,40:5
10,41:5
10,42:5
10,44:2
10,46:3
10,47:3
10,49:4
10,51:3
10,52:1
10,53:1
10,55:4
10,57:4
10,58:4
11,1:2
11,3:1
11,6:1
11,8:2
11,9:2
11,12:2
11,16:1
11,23:3
11,24:4
11,27:2
11,30:2
11,32:2
11,33:1
11,35:4
12,23:1
12,24:2
12,35:2
13,1:2
13,3:1
13,6:1
13,8:2
13,9:2
13,12:2
13,14:2
13,16:1
13,23:3
13,24:4
13,27:2
13,30:2
13,32:2
13,33:1
13,35:4
14,23:1
14,24:2
14,35:2
15,1:2
15,3:1
15,6:1
15,8:2
15,9:2
15,12:2
15,14:2
15,16:1
15,23:3
15,24:4
15,27:2
15,30:2
15,32:2
15,33:1
15,35:4
16,1:1
16,8:1
16,9:1
16,12:1
16,14:1
16,21:2
16,24:3
16,25:3
16,27:1
16,29:3
16,30:1
16,32:1
16,35:3
17,1:1
17,8:1
17,9:1
17,12:1
17,14:1
17,23:2
17,24:3
17,27:1
17,30:1
17,32:1
17,35:3
18,1:2
18,3:1
18,6:1
18,8:2
18,9:2
18,12:2
18,14:2
18,16:1
18,17:1
18,20:1
18,21:3
18,24:4
18,25:4
18,27:2
18,29:4
18,30:2
18,32:2
18,33:1
18,35:4
18,44:1
19,1:2
19,3:1
19,6:1
19,8:2
19,9:2
19,12:2
19,14:2
19,16:1
19,17:1
19,20:1
19,21:3
19,24:4
19,25:4
19,27:2
19,29:4
19,30:2
19,32:2
19,33:1
19,35:4
19,44:1
20,1:1
20,8:1
20,9:1
20,12:1
20,14:1
20,23:2
20,24:3
20,27:1
20,30:1
20,32:1
20,35:3
21,24:1
21,25:1
21,35:1
22,1:3
22,2:1
22,3:2
22,5:1
22,6:2
22,7:1
22,8:3
22,9:3
22,11:1
22,12:3
22,13:1
22,14:3
22,15:1
22,16:2
22,17:2
22,18:1
22,19:1
22,20:2
22,21:4
22,23:4
22,24:5
22,25:5
22,26:1
22,28:1
22,29:5
22,31:1
22,32:3
22,33:2
22,35:5
22,44:2
23,24:1
23,25:1
23,29:1
23,35:1
26,1:2
26,3:1
26,6:1
26,8:2
26,9:2
26,12:2
26,14:2
26,16:1
26,17:1
26,20:1
26,21:3
26,23:3
26,24:4
26,25:4
26,27:2
26,30:2
26,32:2
26,33:1
26,35:4
26,44:1
27,21:1
27,23:1
27,24:2
27,25:2
27,29:2
27,35:2
28,1:2
28,3:1
28,6:1
28,8:2
28,9:2
28,12:2
28,14:2
28,16:1
28,17:1
28,20:1
28,21:3
28,23:3
28,24:4
28,25:4
28,27:2
28,29:4
28,30:2
28,37:4
28,38:4
28,39:4
28,40:4
28,41:4
28,42:4
28,44:1
30,21:1
30,23:1
30,24:2
30,25:2
30,29:2
30,35:2
31,1:2
31,3:1
31,6:1
31,8:2
31,9:2
31,12:2
31,14:2
31,16:1
31,17:1
31,20:1
31,21:3
31,23:3
31,24:4
31,25:4
31,27:2
31,29:4
31,30:2
31,32:2
31,33:1
31,35:4
31,44:1
32,21:1
32,23:1
32,24:2
32,25:2
32,29:2
32,35:2
32,37:2
32,38:2
32,39:2
32,40:2
32,41:2
32,42:2
33,1:1
33,8:1
33,9:1
33,12:1
33,14:1
33,21:2
33,23:2
33,24:3
33,25:3
33,27:1
33,29:3
33,30:1
33,32:1
33,37:3
33,38:3
33,39:3
33,40:3
33,41:3
33,42:3
34,1:2
34,3:1
34,6:1
34,8:2
34,9:2
34,12:2
34,14:2
34,16:1
34,17:1
34,20:1
34,21:3
34,23:3
34,24:4
34,25:4
34,27:2
34,29:4
34,30:2
34,32:2
34,33:1
34,35:4
34,44:1
36,1:3
36,2:1
36,3:2
36,5:1
36,6:2
36,7:1
36,8:3
36,9:3
36,11:1
36,12:3
36,13:1
36,14:3
36,15:1
36,16:2
36,17:2
36,18:1
36,19:1
36,20:2
36,21:4
36,23:4
36,24:5
36,25:5
36,26:1
36,27:3
36,28:1
36,29:5
36,30:3
36,31:1
36,32:3
36,33:2
36,34:1
36,35:5
36,44:2
43,1:3
43,2:1
43,3:2
43,5:1
43,6:2
43,7:1
43,8:3
43,9:3
43,11:1
43,12:3
43,13:1
43,14:3
43,15:1
43,16:2
43,17:2
43,18:1
43,19:1
43,20:2
43,21:4
43,23:4
43,24:5
43,25:5
43,26:1
43,27:3
43,28:1
43,29:5
43,30:3
43,31:1
43,32:3
43,33:2
43,34:1
43,35:5
43,37:5
43,38:5
43,39:5
43,40:5
43,41:5
43,42:5
43,44:2
44,1:1
44,8:1
44,9:1
44,12:1
44,14:1
44,21:2
44,23:2
44,24:3
44,25:3
44,27:1
44,29:3
44,30:1
44,32:1
44,35:3
44,37:3
44,38:3
44,39:3
44,40:3
44,41:3
44,42:3
45,1:3
45,2:1
45,3:2
45,5:1
45,6:2
45,7:1
45,8:3
45,9:3
45,11:1
45,12:3
45,13:1
45,14:3
45,15:1
45,16:2
45,17:2
45,18:1
45,19:1
45,20:2
45,21:4
45,23:4
45,24:5
45,25:5
45,26:1
45,27:3
45,28:1
45,29:5
45,30:3
45,31:1
45,32:3
45,33:2
45,34:1
45,35:5
45,37:5
45,38:5
45,39:5
45,40:5
45,41:5
45,42:5
45,44:2
46,21:1
46,23:1
46,24:2
46,25:2
46,29:2
46,35:2
46,37:2
46,38:2
46,39:2
46,40:2
46,41:2
46,42:2
46,49:1
47,21:1
47,23:1
47,24:2
47,25:2
47,29:2
47,35:2
47,37:2
47,38:2
47,39:2
47,40:2
47,41:2
47,42:2
47,49:1
48,1:3
48,2:1
48,3:2
48,5:1
48,6:2
48,7:1
48,8:3
48,9:3
48,11:1
48,12:3
48,13:1
48,14:3
48,15:1
48,16:2
48,17:2
48,18:1
48,19:1
48,20:2
48,21:4
48,23:4
48,24:5
48,25:5
48,26:1
48,27:3
48,28:1
48,29:5
48,30:3
48,31:1
48,32:3
48,33:2
48,34:1
48,35:5
48,37:5
48,38:5
48,39:5
48,40:5
48,41:5
48,42:5
48,44:2
48,46:3
48,47:3
48,49:4
48,51:3
48,52:1
48,53:1
49,24:1
49,25:1
49,29:1
49,35:1
49,37:1
49,38:1
49,39:1
49,40:1
49,41:1
49,42:1
50,1:3
50,2:1
50,3:2
50,5:1
50,6:2
50,7:1
50,8:3
50,9:3
50,11:1
50,12:3
50,13:1
50,14:3
50,15:1
50,16:2
50,17:2
50,18:1
50,19:1
50,20:2
50,21:4
50,23:4
50,24:5
50,25:5
50,26:1
50,27:3
50,28:1
50,29:5
50,30:3
50,31:1
50,32:3
50,33:2
50,34:1
50,35:5
50,37:5
50,38:5
50,39:5
50,40:5
50,41:5
50,42:5
50,44:2
50,46:3
50,47:3
50,49:4
50,51:3
50,52:1
50,53:1
50,55:4
50,57:4
51,21:1
51,23:1
51,24:2
51,25:2
51,29:2
51,35:2
51,37:2
51,38:2
51,39:2
51,40:2
51,41:2
51,42:2
51,49:1
52,1:2
52,3:1
52,6:1
52,8:2
52,9:2
52,12:2
52,14:2
52,16:1
52,17:1
52,20:1
52,21:3
52,23:3
52,24:4
52,25:4
52,27:2
52,29:4
52,30:2
52,32:2
52,33:1
52,35:4
52,37:4
52,38:4
52,39:4
52,40:4
52,41:4
52,42:4
52,44:1
52,46:2
52,47:2
52,49:3
52,51:2
53,1:2
53,3:1
53,6:1
53,8:2
53,9:2
53,12:2
53,14:2
53,16:1
53,17:1
53,20:1
53,21:3
53,23:3
53,24:4
53,25:4
53,27:2
53,29:4
53,30:2
53,32:2
53,33:1
53,35:4
53,37:4
53,38:4
53,39:4
53,40:4
53,41:4
53,42:4
53,44:1
53,46:2
53,47:2
53,49:3
53,51:2
54,1:3
54,2:1
54,3:2
54,5:1
54,6:2
54,7:1
54,8:3
54,9:3
54,11:1
54,12:3
54,13:1
54,14:3
54,15:1
54,16:2
54,17:2
54,18:1
54,19:1
54,20:2
54,21:4
54,23:4
54,24:5
54,25:5
54,26:1
54,27:3
54,28:1
54,29:5
54,30:3
54,31:1
54,32:3
54,33:2
54,34:1
54,35:5
54,37:5
54,38:5
54,39:5
54,40:5
54,41:5
54,42:5
54,44:2
54,46:3
54,47:3
54,49:4
54,51:3
54,52:1
54,53:1
55,24:1
55,25:1
55,29:1
55,35:1
55,37:1
55,38:1
55,39:1
55,40:1
55,41:1
55,42:1
56,1:3
56,2:1
56,3:2
56,5:1
56,6:2
56,7:1
56,8:3
56,9:3
56,11:1
56,12:3
56,13:1
56,14:3
56,15:1
56,16:2
56,17:2
56,18:1
56,19:1
56,20:2
56,21:4
56,23:4
56,24:5
56,25:5
56,26:1
56,27:3
56,28:1
56,29:5
56,30:3
56,31:1
56,32:3
56,33:2
56,34:1
56,35:5
56,37:5
56,38:5
56,39:5
56,40:5
56,41:5
56,42:5
56,44:2
56,46:3
56,47:3
56,49:4
56,51:3
56,52:1
56,53:1
56,55:4
57,24:1
57,25:1
57,29:1
57,35:1
57,37:1
57,38:1
57,39:1
57,40:1
57,41:1
57,42:1
58,24:1
58,25:1
58,29:1
58,35:1
58,37:1
58,38:1
58,39:1
58,40:1
58,41:1
58,42:1

<end>

<optimal SALBP-1 value>
22


<rand seed>
467321153

<Lower Bounds>
Lm1=21
Lms1=21
Lm2=14
Lm3=17
Lm4=21
Best=21

<Optimal Stations (Iterations: 10)>
26
